34 34
5 6
2 5
8 6
3 5
1 4
2 1
1 10
4 7
2 4
9 1
5 9
2 3
8 2
1 9
2 3
8 2
2 5
7 3
1 9
4 4
8 1
6 10
9 7
1 4
2 6
2 8
5 3
9 7
10 6
10 1
7 9
2 8
6 6
6 4
13 16 76
18 19 90
11 15 99
17 11 78
19 18 81
14 18 54
19 12 50
14 10 74
17 12 66
18 17 72
11 16 59
16 12 83
10 19 100
15 11 83
19 17 64
15 10 51
14 13 51
10 13 64
18 15 71
11 17 81
20 20 95
17 19 90
17 11 56
13 12 63
12 18 58
16 17 59
19 16 64
14 18 83
17 11 56
20 11 51
13 10 68
13 14 83
20 16 84
15 11 90
